150818,148552,148552,148552,145427,144170,142347,142347,142347,141894,141894,138842,135526,135526,135526,132182,132182,132059,132059,132059,132059,130037,127865,120986,120986,120986,120986,120986,120986,120986,120653,120653,120653,120653,117778,117778,117778,117778,115411,115411,115411,115411,115411,114697,114697,114697,113573,113573,113066,112865,112324,110235,110235,110235,110235,110235,109384,108619,107765,107765,107765,107765,107765,107765,106899,105070,105070,104665,104665,104665,104092,104092,103889,103889,103889,103889,103439,103439,103439,102763,102763,102763,102763,102763,102736,102736,101952,101898,101898,101898,101898,101898,101898,101125,101125,101125,101125,100122,100122,100122,100122,99229,98715,98715,98715,98715,98715,98715,98715,98457,98457,98457,98457,98457,98457,98457,98457,98457,98457,98232,98232,97877,97877,97877,97877,97877,97851,97624,96375,96375,96375,96375,96375,96375,96345,96011,96011,96011,96011,95153,94424,94424,94424,94192,94192,93887,93887,93823,93823,93823,93823,93823,92173,92173,92173,92173,92173,92173,92092,92092,92092,92092,92092,92092,92092,92092,92092,92092,91914,91914,91914,91914,91914,91914,91345,91345,91345,91345,91345,91345,91345,91288,91220,91195,91195,91195,91195,91195,91195,91195,91195,90927,90927,90927,90927,90896,90896,90896,90389,90389,90389,90251,90251,90251,90251,90251,90251,90251,90251,90251,90251,90251,90251,90251,90251,90251,89997,89997,89997,89997,89959,89959,89959,89782,89782,89782,89743,89743,89743,89493,89493,89493,89225,89225,89225,88401,88401,88401,88401,88401,88401,88401,88401,88401,88401,88401,88401,88401,88401,88401,88401,88401,88401,88401,88401,88401,88401,87061,87061,87061,87061,87061,87061,87061,87061,87061,87061,87061,87061,87061,87061,87061,87061,87061,87061,87061,87061,87061,87061,87061,87061,87061,87061,87061,87061,87061,86921,85847,85847,85847,85847,85847,85847,85847,85847,85847,85847,85847,85847,85847,85847,85847,85630,84700,84700,84700,84700,84700,84700,84700,84700,84700,84700,84700,84700,84700,84700,84700,84700,84700,84700,84700,84700,84700,84700,84700,84700,84700,84700,84700,84700,84700,84700,84700,84293,84293,84293,84293,84293,84293,84293,84293,84293,84293,84293,84293,84293,84293,84293,84293,84293,84293,84293,84293,84293,84293,84293,84293,84293,84293,84293,84293,84293,84293,84293,84293,84293,84293,84293,84293,84293,84154,84154,84154,84154,84154,84154,83826,83826,83826,83826,83826,83826,83826,83826,83826,83826,83826,83826,83826,83595,83595,83595,83595,83595,83595,83595,83595,83595,83595,83595,83595,83595,83595,83595,83595,83595,83595,83595,83595,83595,83595,83595,83595,83595,83595,83595,83595,83595,83595,83595,83595,83595,83595,83595,83595,83595,83595,83595,83595,83595,83595,83595,83595,83595,83595,83595,83595,81730,81730,81730,81730,81730,81730,81730,81730,81730,81730,81730,81730,81730,81730,81730,81730,81730,81730,81730,81730,81730,81730,81730,81730,81730,80999,80999,80999,80999,80999,80999,80864,80864,80864,80864,80864,78897,78897,78897,78897,78897,78897,78897,78897,78897,78620,78620,78620,78620,78620,78620,78385,78385,78385,78385,78385,78359,78359,78359,78359,78359,78359,78359,78359,78359,78359,78359,78359,78265,78160,78160,78124,78124,78124,78124,78092,78092,78092,77911,77911,77608,77608,77608,77608,77608,77608,77608,77608,77608,77608,77608,77608,77608,77608,77608,77608,77608,77608,77608,77608,77608,77608,77608,76125,76125,76125,76125,76125,76125,76125,76125,76125,76125,76125,76125,76125,76125,76125,76125,76125,75931,75931,75931,75931,75251,75251,75251,75251,75251,75251,75251,75251,75251,75251,75251,75251,75251,75251,75251,75251,75251,75251,75251,75251,75251,75251,75251,75251,75251,75251,75251,75251,75251,75251,75251,75251,75251,75251,75251,75251,75251,75251,75251,75251,75251,75251,75251,75251,75251,75251,75251,75251,75251,75251,75251,75251,75251,75251,75251,75251,75251,75251,75251,75251,75251,75251,75251,75251,75251,75251,75251,75251,75251,75251,75251,75251,75251,75251,74610,74610,74610,74610,74610,74610,74610,74610,74610,74610,74610,74610,74610,74610,74610,74610,74610,74610,74610,74610,74284,74022,74022,74022,73459,73459,73459,73346,73346,73346,73346,73346,73346,73346,73346,73203,73203,73203,73203,73203,73203,73203,73203,73203,73203,73203,73028,73028,73028,73028,73028,73028,73028,73028,72468,72468,72468,72468,72468,72468,72468,72468,72468,72468,72468,72468,72468,72468,72468,72468,72468,72468,72468,72468,72468,72468,72468,72468,72468,72468,72468,72468,72468,72468,72468,72468,72468,72468,72468,72468,72468,72468,72468,72468,72468,72468,72468,72468,72468,72468,72468,71807,71807,71807,71807,71807,71723,71723,71723,71723,71723,71723,71723,71723,71723,71723,71723,71723,71723,71723,71723,71723,71723,71723,71723,71723,71723,71723,71723,71723,71723,71723,71723,71723,71723,71723,71723,71723,71723,71723,71723,71723,71723,71723,71723,71723,71723,71723,71723,71723,70985,70985,70985,70985,70985,70985,70985,70985,70985,70985,70985,70121,70121,70121,70121,70121,70121,70121,70121,70121,70121,70121,70121,70121,70121,70121,70121,70121,70121,70121,70121,70121,70121,70121,70121,70121,70121,70121,70121,70121,70121,70121,70121,70121,70121,70121,70121,70121,70121,70121,70121,70121,70121,70121,70121,70121,70121,70121,70121,70121,70121,70121,70121,70121,70121,70121,70121,70121,70121,70121,70121,70121,70121,70121,70121,70121,70121,70121,70121,70121,70121,70121,69835,69835,69465,69465,69465,69465,69465,69465,69465,69465,69465,69465,69465,69465,69465,69465,69465,69465,69465,69465,69465,69465,69465,69003,69003,69003,69003,69003,68613,68613,68613,68232,68232,68232,68232,68232,68232,68232,68232,68232,68232,68232,68232,68232,68232,68232,68232,68139,68139,68139,68139,67665,67665,67665,67665,67665,67665,67665,67665,67665,67665,67665,67665,67665,67665,67665,67665,67665,67665,67665,67665,67665,67665,67665,67665,67665,67665,67665,67665,67665,67665,67665,67665,67665,67665,67665,67665,67665,67665,67665,67665,67665,67665,67665,67665,67665,67665,67665,67665,67665,67665,67665,67665,67665,67665,67351,67351,67351,67351,67351,67130,67130,67130,67130,67130,67130,67130,67130,67130,67130,67130,66901,66901,66901,66901,66901,66901,66901,66669,66669,66669,66669,66669,66669,66669,66669,66669,66669,66669,66669,66669,66669,66669,66669,66669,66669,66669,66669,66669,66669,66669,66669,66669,66669,66669,66669,66669,66669,66669,66669,66669,66669,66669,66669,66669,66669,66669,66669,66669,66669,66669,66669,66669,66669,66669,66669,66669,66669,66669,66669,66669,66669,66669,66669,66669,66669,66669,66669,66669,66669,66669,66669,66669,66669,66669,66669,66669,66669,66669,66669,66669,66669,66669,66669,66669,66669,66669,66669,66669,66669,66669,66669,66669,66669,66669,66669,66669,66669,66669,66669,66669,66669,66669,66669,66669,66669,66669,66669,66669,66669,66669,66669,66669,66669,66669,66669,66669,66669,66669,66669,66669,66669,66669,66669,66669,66669,66669,66669,66669,66669,66669,66669,66669,66669,66669,66669,66669,66669,66669,66669,66669,66669,66669,66669,66669,66669,66669,66669,66669,66669,66669,66669,66669,66669,66669,66669,66669,66669,66669,66669,66669,66669,66669,66669,66669,66669,66669,66669,66669,66669,66669,66669,66669,66669,66669,66669,66669,66669,66669,66669,66669,66669,66669,66669,66669,66669,66669,66669,66669,66669,66669,66669,66669,66669,66669,66669,66669,66669,66669,66669,66669,66669,66669,66669,66669,66669,66669,66669,66669,66669,66669,66669,66669,66669,66669,66669,66669,66669,66669,66669,66669,66669,66669,66669,66669,66669,66669,66669,66669,66669,66669,66669,66669,66669,66669,66669,66669,66669,66669,66669,66669,66669,66669,66669,66669,66669,66669,66669,66669,66669,66669,66669,66669,66669,66669,66669,66669,66669,66669,66669,66669,66669,66669,66669,66669,66669,66669,66669,66669,66669,66669,66669,66669,66669,66669,66669,66669,66669,66669,66669,66669,66669,66669,66669,66669,66669,66669,66669,66669,66669,66669,66669,66669,66669,66669,66669,66669,66669,66669,66669,66669,66669,66669,66669,66669,66669,66669,66669,66669,66669,66669,66669,66669,66669,66669,66669,66669,66669,66669,66669,66669,66669,66669,66669,66669,66669,66669,66669,66669,66669,66669,66669,66669,66669,66669,66669,66669,66669,66669,66669,66669,66669,66669,66669,66669,66669,66669,66669,66669,66669,66669,66669,66669,66669,66669,66669,66669,66669,66669,66669,66669,66669,66669,66669,66669,66669,66669,66669,66669,66669,66669,66669,66669,66669,66669,66669,66669,66669,66669,66669,66669,66669,66669,66669,66669,66669,66669,66669,66669,66669,66669,66669,66669,66669,66669,66669,66669,66669,66669,66669,66669,66669,66669,66669,66669,66669,66669,66669,66669,66669,66669,66669,66669,66669,66669,66669,66669,66669,66669,66669,66669,66669,66669,66669,66669,66669,66669,66669,66669,66669,66669,66669,66669,66669,66669,66669,66669,66669,66669,66669,66669,66669,66669,66669,66669,66669,66669,66669,66669,66669,66669,66669,66669,66669,66669,66669,66669,66669,66669,66669,66669,66669,66669,66669,66669,66669,66669,66669,66669,66669,66669,66669,66669,66669,66669,66669,66669,66669,66669,66669,66669,66669,66669,66669,66669,66669,66669,66669,66669,66669,66669,66669,66669,66669,66669,66669,66669,66669,66669,66669,66669,66669,66669,66669,66669,66669,66669,66669,66669,66669,66669,66669,66669,66669,66669,66669,66669,66669,66669,66669,66669,66669,66669,66669,66669,66669,66669,66669,66669,66669,66669,66669,66669,66669,66669,66669,66669,66669,66669,66669,66669,66669,66669,66669,66669,66669,66669,66669,66669,66669,66669,66669,66669,66669,66669,66669,66669,66669,66669,66669,66669,66669,66669,66669,66669,66669,66669,66669,66669,66669,66669,66669,66669,66669,66669,66669,66669,66669,66669,66669,66669,66669,66669,66669,66669,66669,66669,66669,66669,66669,66669,66669,66669,66669,66669,66669,66669,66669,66669,66669,66669,66669,66669,66669,66669,66669,66669,66669,66669,66669,66669,66669,66669,66669,66669,66669,66669,66669,66669,66669,66669,66669,66669,66669,66669,66669,66669,66669,66669,66669,66669,66669,66669,66669,66669,66669,66669,66669,66669,66669,66669,66669,66669,66669,66669,66669,66669,66669,66669,66669,66669,66669,66669,66669,66669,66669,66669,66669,66669,66669,66669,66669,66669,66669,66669,66669,66669,66669,66669,66669,66669,66669,66669,66669,66669,66669,66669,66669,66669,66669,66669,66669,66669,66669,66669,66669,66669,66669,66669,66669,66669,66669,66669,66669,66669,66669,66669,66669,66669,66669,66669,66669,66669,66669,66669,66669,66669,66669,66669,66669,66669,66669,66669,66669,66669,66669,66669,66669,66669,66669,66669,66669,66669,66669,66669,66669,66669,66669,66669,66669,66669,66669,66669,66669,66669,66669,66669,66669,66669,66669,66669,66669,66669,66669,66669,66669,66669,66669,66669,66669,66669,66669,66669,66669,66669,66669,66669,66669,66669,66669,66669,66669,66669,66669,66669,66669,66669,66669,66669,66669,66669,66669,66669,66669,66669,66669,66669,66669,66669,66669,66669,66669,66669,66669,66669,66669,66669,66669,66669,66669,66669,66669,66669,66669,66669,66669,66669,66669,66669,66669,66669,66669,66669,66669,66669,66669,66669,66669,66669,66669,66669,66669,66669,66669,66669,66669,66669,66669,66669,66669,66669,66669,66669,66669,66669,66669,66669,66669,66669,66669,66669,66669,66669,66669,66669,66669,66669,66669,66669,66669,66669,66669,66669,66669,66669,66669,66669,66669,66669,66669,66669,66669,66669,66669,66669,66669,66669,66669,66669,66669,66669,66669,66669,66669,66669,66669,66669,66669,66669,66669,66669,66669,66669,66669,66669,66669,66669,66669,66669,66669,66669,66669,66669,66669,66669,66669,66669,66669,66669,66669,66669,66669,66669,66669,66669,66669,66669,66669,66669,66669,66669,66669,66669,66669,66669,66669,66669,66669,66669,66669,66669,66669,66669,66669,66669,66669,66669,66669,66669,66669,66669,66669,66669,66669,66669,66669,66669,66669,66669,66669,66669,66669,66669,66669,66669,66669,66669,66669,66669,66669,66669,66669,66669,66669,66669,66669,66669,66669,66669,66669,66669,66669,66669,66669,66669,66669,66669,66669,66669,66669,66669,66669,66669,66669,66669,66669,66669,66669,66669,66669,66669,66669,66669,66669,66669,66669,66669,66669,66669,66669,66669,66669,66669,66669,66669,66669,66669,66669,66669,66669,66669,66669,66669,66669,66669,66669,66669,66669,66669,66669,66669,66669,66669,66669,66669,66669,66669,66669,66669,66669,66669,66669,66669,